13 15
19 28
9 44
26 41
18 27
20 3
6 14
13 44
8 44
28 24
8 26
12 33
10 45
25 3
7 21
26 50
29 44
10 41
15 33
14 10
27 10
21 34
7 10
17 18
20 29
13 40
11 43
25 47
27 18
13 12
11 4
27 37
5 14
7 49
15 40
8 14
20 40
28 23
22 16
15 50
20 22
17 4
27 34
30 15
23 15
12 22
28 35
26 42
18 26
29 10
